
Gurobi 12.0.2 (win64) logging started Wed May 21 23:01:14 2025

Set parameter LogFile to value "instancias/Teste\I_6_2_S_1-9_4.log"
Gurobi Optimizer version 12.0.2 build v12.0.2rc0 (win64 - Windows 11.0 (26100.2))

CPU model: 11th Gen Intel(R) Core(TM) i3-1115G4 @ 3.00GHz, instruction set [SSE2|AVX|AVX2|AVX512]
Thread count: 2 physical cores, 4 logical processors, using up to 4 threads

Non-default parameters:
TimeLimit  300

Optimize a model with 172 rows, 87 columns and 758 nonzeros
Model fingerprint: 0xada383e8
Variable types: 15 continuous, 72 integer (0 binary)
Coefficient statistics:
  Matrix range     [1e+00, 1e+03]
  Objective range  [1e+00, 1e+00]
  Bounds range     [1e+00, 1e+00]
  RHS range        [1e+00, 1e+03]
Found heuristic solution: objective 81.0000000
Presolve removed 25 rows and 13 columns
Presolve time: 0.00s
Presolved: 147 rows, 74 columns, 598 nonzeros
Variable types: 13 continuous, 61 integer (61 binary)

Root relaxation: objective 0.000000e+00, 61 iterations, 0.00 seconds (0.00 work units)

    Nodes    |    Current Node    |     Objective Bounds      |     Work
 Expl Unexpl |  Obj  Depth IntInf | Incumbent    BestBd   Gap | It/Node Time

     0     0    0.00000    0   18   81.00000    0.00000   100%     -    0s
     0     0    0.00000    0   12   81.00000    0.00000   100%     -    0s
     0     0    0.00000    0   19   81.00000    0.00000   100%     -    0s
     0     0    0.00000    0   16   81.00000    0.00000   100%     -    0s
     0     0    0.00000    0   17   81.00000    0.00000   100%     -    0s
H    0     0                      71.0000000    0.00000   100%     -    0s
     0     0   16.00000    0   18   71.00000   16.00000  77.5%     -    0s
     0     0   16.00000    0   12   71.00000   16.00000  77.5%     -    0s
     0     0   16.40812    0   17   71.00000   16.40812  76.9%     -    0s
     0     0   16.40812    0   16   71.00000   16.40812  76.9%     -    0s
     0     0   47.00000    0    9   71.00000   47.00000  33.8%     -    0s
     0     0   47.00000    0    8   71.00000   47.00000  33.8%     -    0s
H    0     0                      70.0000000   47.00000  32.9%     -    0s
     0     0   47.00000    0    8   70.00000   47.00000  32.9%     -    0s
     0     0   47.00000    0   10   70.00000   47.00000  32.9%     -    0s
     0     0   47.00000    0    6   70.00000   47.00000  32.9%     -    0s
     0     0   47.00000    0   10   70.00000   47.00000  32.9%     -    0s
     0     0   47.00000    0   10   70.00000   47.00000  32.9%     -    0s
     0     0   47.00000    0   10   70.00000   47.00000  32.9%     -    0s
     0     0   47.00000    0   10   70.00000   47.00000  32.9%     -    0s
     0     0   47.00000    0    6   70.00000   47.00000  32.9%     -    0s
     0     0   51.00000    0    8   70.00000   51.00000  27.1%     -    0s
     0     0   51.00000    0    8   70.00000   51.00000  27.1%     -    0s
     0     0   51.00000    0   10   70.00000   51.00000  27.1%     -    0s
H    0     0                      70.0000000   51.00000  27.1%     -    0s
     0     0   51.00000    0   10   70.00000   51.00000  27.1%     -    0s
     0     0   51.00000    0    9   70.00000   51.00000  27.1%     -    0s
     0     0   51.00000    0    9   70.00000   51.00000  27.1%     -    0s
     0     0   51.00000    0    9   70.00000   51.00000  27.1%     -    0s
     0     0   51.00000    0    9   70.00000   51.00000  27.1%     -    0s
     0     2   51.00000    0    9   70.00000   51.00000  27.1%     -    0s

Cutting planes:
  Gomory: 1
  Cover: 1
  Implied bound: 3
  MIR: 12

Explored 73 nodes (1309 simplex iterations) in 0.36 seconds (0.03 work units)
Thread count was 4 (of 4 available processors)

Solution count 4: 70 70 71 81 

Optimal solution found (tolerance 1.00e-04)
Best objective 6.999999999290e+01, best bound 6.999999999290e+01, gap 0.0000%

Gurobi 12.0.2 (win64) logging started Thu May 22 08:50:44 2025

Set parameter LogFile to value "instancias/Teste\I_6_2_S_1-9_4.log"
Gurobi Optimizer version 12.0.2 build v12.0.2rc0 (win64 - Windows 11.0 (26100.2))

CPU model: 11th Gen Intel(R) Core(TM) i3-1115G4 @ 3.00GHz, instruction set [SSE2|AVX|AVX2|AVX512]
Thread count: 2 physical cores, 4 logical processors, using up to 4 threads

Non-default parameters:
TimeLimit  300

Optimize a model with 172 rows, 87 columns and 758 nonzeros
Model fingerprint: 0xada383e8
Variable types: 15 continuous, 72 integer (0 binary)
Coefficient statistics:
  Matrix range     [1e+00, 1e+03]
  Objective range  [1e+00, 1e+00]
  Bounds range     [1e+00, 1e+00]
  RHS range        [1e+00, 1e+03]
Found heuristic solution: objective 81.0000000
Presolve removed 25 rows and 13 columns
Presolve time: 0.01s
Presolved: 147 rows, 74 columns, 598 nonzeros
Variable types: 13 continuous, 61 integer (61 binary)

Root relaxation: objective 0.000000e+00, 61 iterations, 0.00 seconds (0.00 work units)

    Nodes    |    Current Node    |     Objective Bounds      |     Work
 Expl Unexpl |  Obj  Depth IntInf | Incumbent    BestBd   Gap | It/Node Time

     0     0    0.00000    0   18   81.00000    0.00000   100%     -    0s
     0     0    0.00000    0   12   81.00000    0.00000   100%     -    0s
     0     0    0.00000    0   19   81.00000    0.00000   100%     -    0s
     0     0    0.00000    0   16   81.00000    0.00000   100%     -    0s
     0     0    0.00000    0   17   81.00000    0.00000   100%     -    0s
H    0     0                      71.0000000    0.00000   100%     -    0s
     0     0   16.00000    0   18   71.00000   16.00000  77.5%     -    0s
     0     0   16.00000    0   12   71.00000   16.00000  77.5%     -    0s
     0     0   16.40812    0   17   71.00000   16.40812  76.9%     -    0s
     0     0   16.40812    0   16   71.00000   16.40812  76.9%     -    0s
     0     0   47.00000    0    9   71.00000   47.00000  33.8%     -    0s
     0     0   47.00000    0    8   71.00000   47.00000  33.8%     -    0s
H    0     0                      70.0000000   47.00000  32.9%     -    0s
     0     0   47.00000    0    8   70.00000   47.00000  32.9%     -    0s
     0     0   47.00000    0   10   70.00000   47.00000  32.9%     -    0s
     0     0   47.00000    0    6   70.00000   47.00000  32.9%     -    0s
     0     0   47.00000    0   10   70.00000   47.00000  32.9%     -    0s
     0     0   47.00000    0   10   70.00000   47.00000  32.9%     -    0s
     0     0   47.00000    0   10   70.00000   47.00000  32.9%     -    0s
     0     0   47.00000    0   10   70.00000   47.00000  32.9%     -    0s
     0     0   47.00000    0    6   70.00000   47.00000  32.9%     -    0s
     0     0   51.00000    0    8   70.00000   51.00000  27.1%     -    0s
     0     0   51.00000    0    8   70.00000   51.00000  27.1%     -    1s
     0     0   51.00000    0   10   70.00000   51.00000  27.1%     -    1s
H    0     0                      70.0000000   51.00000  27.1%     -    1s
     0     0   51.00000    0   10   70.00000   51.00000  27.1%     -    1s
     0     0   51.00000    0    9   70.00000   51.00000  27.1%     -    1s
     0     0   51.00000    0    9   70.00000   51.00000  27.1%     -    1s
     0     0   51.00000    0    9   70.00000   51.00000  27.1%     -    1s
     0     0   51.00000    0    9   70.00000   51.00000  27.1%     -    1s
     0     2   51.00000    0    9   70.00000   51.00000  27.1%     -    1s

Cutting planes:
  Gomory: 1
  Cover: 1
  Implied bound: 3
  MIR: 12

Explored 73 nodes (1309 simplex iterations) in 1.44 seconds (0.03 work units)
Thread count was 4 (of 4 available processors)

Solution count 4: 70 70 71 81 

Optimal solution found (tolerance 1.00e-04)
Best objective 6.999999999290e+01, best bound 6.999999999290e+01, gap 0.0000%
